c SAT Generator for power-law distributed variable frequencies
c -g u -v 20 -c 91 -k 3 -p 2.750000 -b 3.200000 -f /home/schmidt/Devel/ni-kop-sat/data/ensemble/ruf20-91/ruf20-91-686 -u 1 -U 1 -s 2334324099
p cnf 20 91
-11 14 16 0
11 16 18 0
7 -15 -17 0
-1 12 -16 0
6 -10 -16 0
-1 -2 19 0
1 -3 -11 0
-15 19 -20 0
-6 -12 -19 0
-1 3 20 0
-13 14 -19 0
-3 -15 18 0
9 10 14 0
2 11 18 0
-1 -9 17 0
6 12 -16 0
-8 -15 -17 0
-9 10 -18 0
-6 9 10 0
-3 -4 14 0
-2 -4 14 0
-5 -9 -20 0
-1 -4 -16 0
-4 7 8 0
6 -12 18 0
10 -11 13 0
-1 2 -13 0
3 -10 -14 0
-4 -8 13 0
9 -11 -12 0
10 11 -19 0
5 6 11 0
4 8 -16 0
-2 6 10 0
-7 -17 -19 0
1 -14 -19 0
-5 15 -19 0
-3 -7 -9 0
-3 -4 10 0
-2 10 -14 0
-6 10 -17 0
1 -14 15 0
3 -6 9 0
10 -14 -20 0
-1 -14 -18 0
-5 -8 9 0
6 -12 17 0
-1 6 -11 0
-2 -3 -13 0
14 16 19 0
1 16 17 0
2 -4 9 0
10 15 -17 0
9 14 -16 0
3 10 17 0
1 -4 -5 0
1 -13 -15 0
6 16 17 0
-4 -5 -7 0
-14 19 20 0
-1 5 -16 0
4 -11 -12 0
-8 14 17 0
-1 -5 -17 0
-7 9 -20 0
1 7 11 0
3 12 -20 0
-2 -3 12 0
2 3 9 0
-4 5 20 0
-5 -17 18 0
-6 17 -20 0
9 10 20 0
-12 13 -20 0
7 10 -12 0
7 -8 18 0
-14 -17 -19 0
-1 2 -16 0
6 -16 17 0
12 13 17 0
-10 -11 14 0
-9 -12 -13 0
1 -12 15 0
-3 12 -16 0
7 -13 -14 0
-3 -4 -20 0
7 -8 -19 0
9 16 -20 0
6 9 -12 0
-3 -16 17 0
2 4 -5 0
